gen	cost
1	1387
2	1379
3	1363
4	1350
5	1334
6	1326
7	1306
8	1286
9	1280
10	1267
11	1266
12	1257
13	1256
14	1249
15	1233
16	1232
17	1217
18	1209
19	1209
20	1194
21	1190
22	1179
23	1178
24	1174
25	1174
26	1169
27	1161
28	1149
29	1145
30	1144
31	1141
32	1137
33	1126
34	1123
35	1114
36	1102
37	1095
38	1091
39	1089
40	1079
41	1070
42	1061
43	1056
44	1054
45	1037
46	1034
47	1026
48	1023
49	1021
50	1012

